 200 88 
 8 38 69 36 33 95 40 92 44 73 53 97 
 100 46 66 72 77 99 45 84 63 24 45 89 
 23 85 25 65 36 27 94 97 35 49 27 29 
 9 96 85 21 15 36 58 53 73 49 74 63 
 9 86 71 6 1 50 66 45 37 6 74 90 
 15 64 21 47 45 42 28 33 49 90 3 5 
 56 45 9 71 60 55 21 93 84 82 77 1 
 7 45 89 88 
 38 
 3 4 7 13 14 16 17 19 20 21 25 26 
 30 31 35 37 40 44 47 48 52 54 56 57 
 62 64 66 68 73 74 76 77 78 81 83 84 
 85 87 
 46 
 2 4 6 7 8 10 11 12 15 20 27 28 
 30 31 32 34 38 39 40 41 42 45 46 47 
 48 50 51 53 55 56 58 59 61 63 66 67 
 69 70 75 76 77 78 79 86 87 88 
 47 
 2 3 4 8 9 11 13 15 17 20 21 23 
 24 26 30 31 32 34 36 37 39 40 43 44 
 46 50 51 52 53 57 59 60 61 63 64 65 
 66 69 71 73 74 75 78 79 80 81 84 
 25 
 8 9 10 12 18 22 33 34 35 36 37 44 
 48 50 52 55 62 67 68 69 73 79 83 87 
 88 
 3 
 21 57 69 
 44 
 2 4 8 10 11 18 19 20 21 23 25 26 
 27 28 31 32 34 35 36 37 38 40 41 42 
 46 47 48 49 50 51 54 56 60 61 62 63 
 70 71 75 76 80 81 83 87 
 45 
 1 2 3 6 7 10 11 13 17 19 20 21 
 23 25 27 31 32 42 43 44 46 48 49 50 
 51 52 53 56 57 59 61 63 69 70 71 72 
 73 74 75 78 79 81 83 87 88 
 43 
 1 2 3 4 6 10 14 15 17 18 19 21 
 23 26 27 31 32 33 35 38 42 43 49 52 
 53 55 56 57 58 60 63 64 65 66 68 70 
 72 79 81 84 85 87 88 
 77 
 1 2 5 6 7 8 10 11 12 13 14 15 
 17 18 19 20 21 22 23 24 26 28 29 30 
 31 32 33 34 35 36 37 38 39 40 41 42 
 43 44 45 46 47 48 49 50 51 52 53 54 
 55 56 57 58 59 60 61 62 63 64 65 66 
 67 68 69 70 71 72 74 75 76 77 78 79 
 81 84 85 87 88 
 41 
 1 2 8 9 11 12 13 14 15 16 17 18 
 23 25 28 30 33 36 40 41 42 48 49 50 
 51 52 57 58 61 64 67 68 70 71 72 73 
 75 76 77 79 81 
 34 
 1 2 3 4 7 10 13 19 30 33 34 37 
 38 39 42 45 48 50 51 53 55 56 59 60 
 66 73 75 79 80 82 83 85 86 87 
 32 
 1 6 11 12 17 18 19 20 24 27 30 33 
 34 40 41 49 50 52 55 56 60 64 65 67 
 69 72 74 76 80 81 84 85 
 46 
 1 2 4 5 8 14 15 16 18 19 20 21 
 27 28 32 33 37 38 40 42 46 47 50 51 
 53 54 55 56 57 58 59 60 61 62 67 68 
 69 72 75 76 77 78 79 80 82 88 
 49 
 1 2 3 5 7 9 10 11 13 14 15 20 
 21 23 24 25 27 29 30 33 34 38 41 43 
 45 47 48 49 51 52 53 54 55 60 62 64 
 65 67 70 71 73 74 75 79 80 81 82 83 
 87 
 18 
 8 13 15 16 19 20 34 39 45 47 52 56 
 59 61 63 64 76 77 
 79 
 1 2 3 4 5 6 7 8 9 10 11 12 
 13 14 15 16 17 18 19 20 21 22 23 24 
 26 27 28 30 31 32 33 34 35 36 37 38 
 39 40 41 43 44 45 46 47 48 49 50 51 
 52 53 54 55 56 58 59 60 61 62 63 64 
 65 66 68 69 70 71 72 73 74 75 76 77 
 78 79 81 82 84 85 87 
 17 
 3 4 5 22 24 26 28 29 30 36 38 58 
 59 61 65 74 80 
 9 
 4 20 21 22 25 32 39 45 62 
 44 
 2 4 5 7 11 13 15 16 19 23 27 28 
 29 31 32 33 35 36 39 40 43 44 47 54 
 55 56 58 59 60 61 64 65 66 68 70 72 
 73 75 77 82 84 85 86 88 
 78 
 1 2 3 4 5 6 7 8 9 10 12 13 
 14 16 17 18 19 20 21 23 24 25 27 28 
 29 30 32 34 35 36 37 38 40 41 42 43 
 44 45 46 47 48 49 50 51 52 53 54 55 
 56 57 58 60 61 62 63 64 65 66 67 69 
 70 71 72 73 75 76 77 78 79 80 81 82 
 83 84 85 86 87 88 
 29 
 1 2 8 9 12 16 22 30 40 44 47 48 
 50 55 60 61 62 63 65 66 76 78 80 81 
 82 84 85 86 87 
 69 
 1 2 3 5 6 7 8 9 10 11 13 14 
 16 17 18 20 21 22 23 24 25 26 27 28 
 29 30 31 35 36 37 39 40 42 43 44 45 
 46 47 48 50 51 52 54 56 57 58 59 60 
 61 62 63 67 69 70 71 73 74 75 76 77 
 78 79 80 81 82 83 85 86 88 
 88 
 1 2 3 4 5 6 7 8 9 10 11 12 
 13 14 15 16 17 18 19 20 21 22 23 24 
 25 26 27 28 29 30 31 32 33 34 35 36 
 37 38 39 40 41 42 43 44 45 46 47 48 
 49 50 51 52 53 54 55 56 57 58 59 60 
 61 62 63 64 65 66 67 68 69 70 71 72 
 73 74 75 76 77 78 79 80 81 82 83 84 
 85 86 87 88 
 17 
 2 3 6 7 13 14 19 33 34 35 42 48 
 56 71 73 75 77 
 82 
 1 2 3 4 5 6 7 8 9 10 11 12 
 13 14 15 16 17 18 19 20 21 22 23 24 
 25 26 27 28 29 30 31 32 33 34 35 38 
 39 40 41 42 43 44 45 46 47 48 49 50 
 51 52 53 54 57 58 59 60 61 62 63 64 
 65 66 67 69 70 72 73 74 75 76 77 78 
 79 80 81 82 83 84 85 86 87 88 
 5 
 4 26 33 78 88 
 55 
 1 5 8 9 10 12 14 15 16 17 19 20 
 21 23 24 26 27 29 31 34 35 37 38 39 
 41 42 43 45 47 48 49 50 51 52 53 54 
 56 57 61 62 63 64 66 68 70 71 73 75 
 76 79 81 82 83 84 87 
 46 
 1 2 4 8 10 13 14 16 17 18 21 22 
 23 25 26 27 28 30 33 34 35 39 41 45 
 46 47 49 50 52 53 54 55 57 59 63 66 
 68 69 70 72 74 76 79 80 81 85 
 7 
 3 16 28 33 45 52 60 
 14 
 2 8 13 16 21 54 58 59 61 70 71 72 
 75 85 
 15 
 4 17 22 26 30 32 33 47 58 62 68 74 
 83 85 87 
 14 
 9 17 22 34 35 37 50 57 69 72 75 77 
 82 86 
 21 
 12 18 22 29 35 36 38 39 44 49 50 61 
 69 73 78 79 80 82 84 85 87 
 88 
 1 2 3 4 5 6 7 8 9 10 11 12 
 13 14 15 16 17 18 19 20 21 22 23 24 
 25 26 27 28 29 30 31 32 33 34 35 36 
 37 38 39 40 41 42 43 44 45 46 47 48 
 49 50 51 52 53 54 55 56 57 58 59 60 
 61 62 63 64 65 66 67 68 69 70 71 72 
 73 74 75 76 77 78 79 80 81 82 83 84 
 85 86 87 88 
 77 
 1 2 3 4 6 7 8 9 10 11 12 14 
 15 16 17 19 20 21 22 23 25 26 27 28 
 29 30 31 32 33 34 35 36 37 38 40 41 
 42 43 44 45 46 47 48 49 50 51 52 53 
 54 55 56 57 58 59 60 61 63 64 65 66 
 69 70 71 72 73 74 75 76 77 78 79 80 
 81 83 85 87 88 
 7 
 6 13 29 32 38 53 60 
 81 
 1 2 3 4 5 6 7 8 9 10 11 12 
 13 14 15 16 18 19 20 21 22 24 25 26 
 28 29 30 31 32 33 34 35 36 37 38 39 
 40 41 42 43 44 45 46 47 48 49 50 51 
 52 53 54 55 56 57 58 60 61 62 63 64 
 65 66 67 69 71 72 73 74 75 76 77 79 
 80 81 82 83 84 85 86 87 88 
 31 
 2 3 4 10 19 20 21 23 25 29 31 34 
 35 36 44 45 48 49 52 53 59 60 64 67 
 68 70 73 78 86 87 88 
 34 
 2 4 5 20 26 30 32 35 36 40 42 44 
 46 48 49 50 55 56 58 60 61 62 64 65 
 67 70 71 74 76 78 81 82 84 85 
 66 
 1 2 3 4 5 6 8 9 10 11 14 15 
 16 21 22 23 24 25 27 31 32 33 34 36 
 38 39 41 42 43 45 46 47 48 49 50 51 
 53 54 55 56 57 59 61 62 63 64 65 66 
 67 68 69 71 72 73 74 76 77 78 79 80 
 82 83 84 85 86 88 
 60 
 2 3 4 5 6 7 8 9 10 11 13 14 
 15 17 18 19 20 22 26 28 29 31 32 34 
 35 36 37 38 39 40 41 42 43 45 46 50 
 52 53 54 59 61 62 65 66 67 68 69 70 
 71 73 74 76 77 78 79 80 83 85 86 87 
 81 
 1 2 3 4 6 7 8 9 10 11 12 13 
 14 15 17 18 19 20 21 22 23 24 25 26 
 27 29 31 33 34 35 36 37 38 39 40 41 
 42 43 44 45 46 47 48 49 50 51 52 53 
 54 55 56 57 58 59 60 61 62 63 64 65 
 67 68 69 70 71 72 74 75 76 77 78 79 
 80 81 82 83 84 85 86 87 88 
 2 
 8 56 
 88 
 1 2 3 4 5 6 7 8 9 10 11 12 
 13 14 15 16 17 18 19 20 21 22 23 24 
 25 26 27 28 29 30 31 32 33 34 35 36 
 37 38 39 40 41 42 43 44 45 46 47 48 
 49 50 51 52 53 54 55 56 57 58 59 60 
 61 62 63 64 65 66 67 68 69 70 71 72 
 73 74 75 76 77 78 79 80 81 82 83 84 
 85 86 87 88 
 74 
 1 3 4 5 6 8 10 11 12 14 15 16 
 17 18 19 20 21 23 24 25 26 27 28 29 
 30 31 32 33 34 37 39 40 41 42 43 45 
 46 47 48 49 50 51 52 53 55 56 57 58 
 59 60 62 63 64 66 67 69 70 71 72 73 
 74 75 76 77 78 79 81 82 83 84 85 86 
 87 88 
 83 
 1 2 3 5 6 8 9 10 11 12 13 14 
 15 16 17 18 19 20 21 22 23 24 25 26 
 27 28 29 30 31 32 33 34 35 36 37 39 
 40 41 43 44 45 46 47 48 49 50 51 52 
 53 54 55 56 57 58 59 60 61 62 63 64 
 65 66 67 68 69 70 71 72 73 74 75 76 
 77 78 79 80 81 82 83 84 85 86 88 
 25 
 8 11 21 22 23 27 28 29 30 31 33 35 
 39 41 42 44 46 53 58 61 63 65 68 72 
 84 
 42 
 1 4 6 8 9 10 11 12 13 14 16 17 
 19 21 23 24 25 26 29 32 34 35 36 39 
 42 43 48 51 57 58 59 64 68 69 70 73 
 74 76 83 85 86 88 
 39 
 1 5 7 14 15 16 18 22 25 27 28 30 
 32 33 34 36 39 41 43 46 47 48 49 50 
 51 59 60 63 66 67 70 73 76 77 79 80 
 84 86 88 
 87 
 1 2 3 4 5 6 7 8 9 10 11 12 
 13 15 16 17 18 19 20 21 22 23 24 25 
 26 27 28 29 30 31 32 33 34 35 36 37 
 38 39 40 41 42 43 44 45 46 47 48 49 
 50 51 52 53 54 55 56 57 58 59 60 61 
 62 63 64 65 66 67 68 69 70 71 72 73 
 74 75 76 77 78 79 80 81 82 83 84 85 
 86 87 88 
 57 
 1 2 4 5 6 7 11 12 13 14 15 16 
 18 19 20 21 22 23 25 27 28 30 31 32 
 36 39 40 41 42 43 47 49 50 55 56 57 
 59 60 62 63 64 65 66 67 68 69 70 74 
 77 79 80 81 83 84 85 86 87 
 17 
 1 8 13 16 25 29 32 42 45 51 58 62 
 66 68 70 79 82 
 4 
 4 27 41 70 
 28 
 10 12 15 23 24 25 26 30 34 36 37 39 
 40 43 44 45 47 49 54 60 62 63 66 69 
 74 77 78 84 
 44 
 1 2 3 4 7 9 11 13 21 22 23 25 
 26 27 30 31 32 33 36 37 38 39 41 42 
 48 51 53 56 59 60 63 64 65 67 70 74 
 75 76 78 80 81 82 86 88 
 79 
 1 2 3 4 5 6 8 9 10 11 12 13 
 14 15 16 17 18 20 21 22 23 24 26 27 
 28 29 30 31 32 33 34 35 36 38 39 40 
 41 42 43 44 45 46 47 48 50 51 52 53 
 54 55 56 57 58 59 60 61 62 63 64 65 
 67 68 69 70 72 73 75 76 77 78 79 80 
 81 82 83 84 85 87 88 
 30 
 1 2 3 4 5 7 11 13 15 17 18 24 
 25 31 32 33 37 39 46 50 52 57 62 63 
 64 66 68 71 83 84 
 16 
 4 10 14 15 24 28 37 38 44 46 47 50 
 57 76 83 84 
 30 
 6 7 8 9 10 15 16 18 21 24 25 30 
 33 35 44 45 46 48 51 54 56 59 61 65 
 71 82 83 84 87 88 
 76 
 1 2 3 4 5 6 7 8 9 10 11 12 
 13 14 15 18 19 20 21 22 23 24 25 26 
 27 28 29 30 31 32 33 34 35 36 37 38 
 39 40 41 42 43 44 46 47 48 49 50 51 
 52 53 54 55 56 57 58 59 60 62 63 64 
 66 67 68 69 71 73 74 75 78 80 81 83 
 85 86 87 88 
 66 
 1 2 4 5 6 7 8 9 10 13 15 16 
 17 18 19 20 21 22 24 27 28 30 31 32 
 33 35 36 38 39 41 42 43 44 46 47 48 
 49 50 52 54 56 57 58 59 61 63 64 65 
 66 67 68 70 73 74 75 76 77 78 79 80 
 81 82 84 85 86 87 
 32 
 1 2 3 5 6 7 8 15 16 22 23 24 
 27 28 29 32 35 36 41 42 46 47 54 56 
 58 59 61 64 69 73 79 80 
 87 
 1 2 3 4 5 6 7 8 9 10 11 12 
 13 14 15 16 18 19 20 21 22 23 24 25 
 26 27 28 29 30 31 32 33 34 35 36 37 
 38 39 40 41 42 43 44 45 46 47 48 49 
 50 51 52 53 54 55 56 57 58 59 60 61 
 62 63 64 65 66 67 68 69 70 71 72 73 
 74 75 76 77 78 79 80 81 82 83 84 85 
 86 87 88 
 3 
 40 70 88 
 27 
 3 10 20 27 28 34 35 37 40 43 46 47 
 48 49 54 55 58 62 65 68 69 70 72 76 
 77 79 86 
 21 
 1 6 12 13 18 26 27 32 36 43 46 47 
 58 60 69 70 71 79 82 84 85 
 55 
 3 6 7 8 10 11 13 14 15 16 17 18 
 20 21 22 24 25 26 27 30 32 33 39 40 
 41 43 44 46 47 49 50 52 53 54 55 56 
 57 59 60 62 63 67 71 75 76 77 78 79 
 81 82 83 84 85 86 87 
 54 
 1 3 5 6 7 8 9 11 12 16 19 21 
 22 23 24 27 29 31 33 34 35 36 39 41 
 43 44 45 46 51 52 54 55 56 58 60 61 
 62 63 64 65 66 68 69 70 71 73 74 77 
 79 82 83 85 86 88 
 69 
 1 2 3 4 6 8 9 10 12 14 15 16 
 18 19 20 21 22 23 24 25 26 27 29 30 
 34 35 36 37 38 39 40 41 42 44 45 46 
 47 49 53 54 55 58 59 60 61 62 63 64 
 65 66 67 68 69 71 72 73 74 75 76 77 
 78 79 80 81 82 83 84 85 87 
 79 
 1 2 3 4 6 7 8 9 10 12 13 14 
 15 16 17 18 19 20 21 22 23 24 25 26 
 27 28 29 30 31 32 33 35 36 38 39 40 
 41 42 43 44 45 46 47 48 49 50 51 52 
 53 54 55 56 58 59 60 61 62 65 66 67 
 68 69 70 71 72 73 74 75 76 77 78 79 
 80 81 82 85 86 87 88 
 44 
 1 2 3 5 7 11 17 18 19 23 25 27 
 28 30 31 35 36 39 40 43 48 49 50 56 
 57 58 60 61 62 63 64 67 68 69 70 72 
 73 76 77 78 79 85 86 88 
 54 
 1 2 3 4 5 6 7 8 9 11 12 13 
 15 18 19 20 23 24 26 27 29 30 31 32 
 33 35 36 37 38 39 43 44 46 49 50 54 
 55 56 57 58 59 60 61 63 67 71 72 73 
 77 80 82 83 84 87 
 7 
 10 18 65 72 76 79 82 
 79 
 1 2 3 5 6 7 8 9 10 11 12 13 
 14 15 16 18 19 21 22 23 24 25 26 27 
 28 30 31 32 33 34 35 36 37 38 39 40 
 41 43 44 45 46 47 48 49 50 51 52 53 
 55 56 57 58 60 61 63 64 65 66 67 68 
 69 70 71 72 73 74 75 76 77 78 79 80 
 81 82 83 84 86 87 88 
 51 
 1 3 4 6 8 9 10 12 13 15 16 17 
 18 19 22 23 24 27 28 29 30 32 33 36 
 38 41 42 46 47 48 49 54 55 57 62 63 
 65 67 69 72 73 74 75 77 81 82 83 84 
 85 87 88 
 38 
 2 7 8 9 10 14 17 19 21 25 36 38 
 41 43 45 46 47 48 49 50 52 55 56 57 
 58 62 63 64 65 68 69 72 74 78 79 82 
 83 86 
 74 
 1 2 3 4 6 7 8 11 12 14 15 16 
 17 18 19 20 21 23 24 25 27 28 29 30 
 31 32 33 34 35 36 37 38 40 41 42 43 
 44 45 46 47 48 49 50 51 52 53 54 55 
 56 59 60 61 64 66 67 68 69 70 71 73 
 74 75 76 77 78 79 80 81 82 83 84 85 
 86 88 
 31 
 1 7 8 14 19 22 23 26 27 29 32 33 
 37 41 46 47 50 51 53 63 64 66 67 70 
 71 72 73 74 77 80 84 
 30 
 2 4 5 8 12 13 14 15 18 22 25 28 
 30 32 34 35 40 41 44 49 50 54 59 64 
 67 68 75 82 85 86 
 66 
 1 2 3 4 5 6 7 9 10 12 13 14 
 15 19 20 21 22 23 24 29 30 32 33 35 
 36 37 38 39 40 41 42 45 46 47 48 49 
 50 51 52 53 54 55 56 57 58 59 61 63 
 67 68 69 70 72 73 75 76 77 78 79 80 
 81 82 83 84 86 88 
 4 
 40 47 50 77 
 28 
 2 7 10 13 16 18 20 22 23 26 30 32 
 34 37 40 45 46 47 54 55 56 61 67 72 
 73 75 80 83 
 69 
 1 3 5 6 7 8 9 10 12 13 14 16 
 17 18 19 20 21 22 23 26 28 29 30 31 
 32 33 34 35 36 38 40 41 42 43 44 45 
 46 49 50 51 52 53 54 56 57 58 60 61 
 62 63 65 66 68 70 71 72 73 75 76 77 
 79 80 81 82 83 84 86 87 88 
 9 
 23 26 42 43 61 65 67 70 79 
 58 
 1 2 3 4 5 6 7 8 10 11 13 17 
 18 19 20 21 22 24 25 26 28 30 31 33 
 34 36 38 39 41 42 43 45 47 48 50 52 
 54 58 59 60 62 64 65 66 67 68 70 72 
 73 74 75 78 83 84 85 86 87 88 
 38 
 1 2 5 8 12 14 15 18 22 24 25 26 
 30 33 37 40 42 45 46 47 48 51 52 53 
 54 58 61 62 69 71 72 75 77 81 84 85 
 87 88 
 17 
 1 23 31 34 35 36 40 41 42 44 62 71 
 75 76 79 86 88 
 36 
 1 2 3 13 17 18 19 22 23 24 29 30 
 31 35 37 42 46 51 52 53 58 59 65 66 
 70 73 74 75 77 78 79 82 84 86 87 88 
 30 
 2 8 22 23 26 30 31 32 36 40 46 48 
 53 55 57 58 59 61 65 66 67 68 69 73 
 78 79 80 81 82 83 
 55 
 1 3 4 5 7 8 9 10 11 12 14 16 
 17 20 21 22 23 24 25 26 27 28 31 33 
 34 35 37 41 43 44 47 48 50 51 52 53 
 55 60 61 62 63 64 65 66 67 69 70 73 
 74 75 81 85 86 87 88 
 69 
 2 3 4 6 7 10 11 14 16 17 18 20 
 21 22 23 26 27 28 29 30 32 33 35 36 
 37 38 39 40 41 42 43 44 46 47 48 49 
 50 51 52 53 54 55 56 57 58 60 61 62 
 64 65 66 67 68 69 70 71 74 76 77 78 
 79 80 81 82 84 85 86 87 88 
 88 
 1 2 3 4 5 6 7 8 9 10 11 12 
 13 14 15 16 17 18 19 20 21 22 23 24 
 25 26 27 28 29 30 31 32 33 34 35 36 
 37 38 39 40 41 42 43 44 45 46 47 48 
 49 50 51 52 53 54 55 56 57 58 59 60 
 61 62 63 64 65 66 67 68 69 70 71 72 
 73 74 75 76 77 78 79 80 81 82 83 84 
 85 86 87 88 
 48 
 1 2 4 5 6 7 8 11 12 13 15 17 
 18 20 24 26 27 28 29 32 33 34 35 36 
 37 38 41 43 44 46 47 48 49 51 56 57 
 58 60 63 64 65 66 67 75 76 78 82 83 
 76 
 1 2 4 5 6 7 8 9 11 12 13 15 
 16 17 18 19 20 21 22 23 24 25 26 27 
 28 29 30 31 32 33 34 36 37 38 39 40 
 41 42 43 44 46 47 48 49 51 53 54 55 
 56 57 58 59 60 61 62 63 65 66 67 68 
 70 71 72 74 75 76 77 78 79 81 82 83 
 84 85 86 87 
 73 
 1 2 3 4 5 6 7 8 9 11 12 13 
 15 16 17 19 20 21 22 23 24 25 26 27 
 28 30 31 32 33 34 36 37 38 39 40 42 
 43 44 46 47 48 49 50 52 53 54 55 56 
 57 58 60 61 62 63 64 65 68 70 71 72 
 73 74 76 77 80 81 82 83 84 85 86 87 
 88 
 69 
 1 2 4 5 7 9 10 11 12 13 14 15 
 16 17 18 20 21 22 23 24 25 26 27 28 
 30 31 32 33 34 35 38 41 42 43 45 46 
 48 49 50 51 52 53 57 59 62 63 65 66 
 67 68 69 70 72 73 74 75 76 77 78 79 
 80 81 82 83 84 85 86 87 88 
 19 
 6 12 21 27 28 32 33 37 38 39 40 42 
 47 49 62 74 82 83 86 
 7 
 7 13 15 46 71 72 88 
 49 
 5 7 8 9 11 13 14 17 18 19 20 21 
 22 23 24 26 28 31 34 35 37 38 39 41 
 42 44 45 46 47 48 50 53 54 56 61 62 
 64 67 69 71 75 76 79 80 83 85 86 87 
 88 
 35 
 1 3 8 11 13 14 15 17 19 20 26 30 
 31 32 35 39 42 44 46 47 48 49 50 52 
 53 57 60 63 64 66 68 71 72 74 85 
 86 
 1 2 3 5 6 7 8 9 10 11 12 13 
 14 15 16 17 18 19 20 21 22 23 24 25 
 26 27 28 29 30 31 32 33 34 35 36 37 
 38 39 40 41 42 43 44 45 46 47 48 49 
 50 51 52 53 54 55 56 58 59 60 61 62 
 63 64 65 66 67 68 69 70 71 72 73 74 
 75 76 77 78 79 80 81 82 83 84 85 86 
 87 88 
 6 
 7 16 34 51 55 79 
 26 
 1 4 5 13 14 15 22 23 32 34 35 44 
 46 51 54 55 61 62 64 67 68 73 76 78 
 86 87 
 13 
 9 11 13 19 24 34 38 40 50 74 76 79 
 80 
 34 
 4 5 6 7 11 12 14 15 16 17 21 26 
 27 31 37 38 40 43 44 45 47 52 53 54 
 56 57 65 67 69 71 72 81 84 85 
 14 
 1 2 17 22 24 43 48 55 58 62 70 72 
 86 88 
 24 
 5 14 15 16 17 18 21 28 29 31 33 34 
 40 43 49 50 51 57 59 62 67 70 73 83 
 15 
 1 5 19 25 27 41 52 53 58 69 72 74 
 81 82 85 
 13 
 2 11 13 23 28 46 50 58 62 65 67 70 
 85 
 22 
 6 7 8 11 13 21 37 48 50 54 57 60 
 63 65 69 70 77 79 81 84 85 86 
 69 
 1 2 3 5 6 8 9 11 14 15 16 18 
 19 20 21 23 24 27 28 29 30 31 32 33 
 34 35 36 37 38 39 40 41 42 45 46 47 
 48 49 50 51 53 54 56 57 58 59 60 61 
 62 67 68 69 71 72 73 74 75 76 78 79 
 80 81 82 83 84 85 86 87 88 
 49 
 1 4 5 8 10 11 15 16 18 19 21 23 
 24 25 26 27 28 30 32 33 34 37 40 41 
 42 43 44 45 46 47 51 52 57 58 59 60 
 62 63 64 69 70 73 74 75 77 80 83 85 
 86 
 16 
 3 8 12 17 21 23 26 31 40 42 48 51 
 72 74 75 81 
 79 
 1 3 4 5 6 7 8 9 10 12 13 14 
 15 16 17 18 19 20 21 22 23 24 25 26 
 27 28 29 30 31 32 33 34 35 36 37 38 
 39 44 45 46 47 48 49 51 52 53 54 55 
 56 57 58 59 60 61 62 63 64 65 66 67 
 68 69 70 72 73 74 75 76 77 78 79 80 
 81 82 84 85 86 87 88 
 77 
 1 2 3 4 5 6 7 8 9 10 11 12 
 13 14 15 16 17 19 20 21 22 23 24 25 
 26 27 28 29 30 31 32 33 34 36 37 38 
 39 40 41 42 43 44 45 47 50 51 53 54 
 55 56 57 58 59 60 61 62 63 65 66 67 
 68 69 70 71 72 73 74 75 77 78 80 81 
 83 84 85 87 88 
 88 
 1 2 3 4 5 6 7 8 9 10 11 12 
 13 14 15 16 17 18 19 20 21 22 23 24 
 25 26 27 28 29 30 31 32 33 34 35 36 
 37 38 39 40 41 42 43 44 45 46 47 48 
 49 50 51 52 53 54 55 56 57 58 59 60 
 61 62 63 64 65 66 67 68 69 70 71 72 
 73 74 75 76 77 78 79 80 81 82 83 84 
 85 86 87 88 
 70 
 1 3 4 5 6 8 9 10 11 13 14 15 
 16 18 19 20 23 24 25 26 27 28 29 31 
 32 34 35 36 37 38 39 40 41 42 44 45 
 46 48 49 50 51 52 53 54 55 57 58 59 
 60 61 65 66 68 69 70 71 73 74 75 76 
 77 78 80 81 82 83 84 85 87 88 
 9 
 11 34 42 47 54 56 58 75 84 
 69 
 1 2 3 4 6 8 9 10 11 14 17 18 
 20 21 23 25 26 28 29 30 31 32 33 34 
 35 36 37 38 39 40 41 42 43 44 45 47 
 48 49 50 51 52 54 55 56 58 59 60 61 
 62 65 67 68 69 70 71 72 73 74 75 76 
 77 78 80 81 83 84 85 87 88 
 65 
 1 3 4 8 9 10 11 12 14 15 17 19 
 20 23 25 26 27 28 29 30 31 32 33 34 
 35 37 38 39 40 41 42 44 45 46 47 48 
 49 50 53 54 56 57 58 59 60 62 66 68 
 69 70 71 72 74 76 77 78 79 80 81 82 
 83 84 85 86 88 
 8 
 3 9 48 51 56 66 85 87 
 70 
 1 2 3 4 5 6 7 8 9 10 11 12 
 13 14 15 16 18 20 21 22 23 24 25 28 
 29 30 31 32 36 37 38 40 41 42 44 45 
 46 47 49 50 51 53 54 55 56 58 59 60 
 62 63 64 65 66 67 68 70 71 72 74 76 
 78 79 81 82 83 84 85 86 87 88 
 42 
 2 3 4 7 8 9 10 11 12 13 14 17 
 19 21 28 30 31 33 37 38 39 42 43 44 
 46 47 50 51 54 55 60 65 73 74 77 78 
 81 82 84 85 86 87 
 82 
 1 2 3 4 5 6 7 8 9 10 11 12 
 13 14 15 16 17 18 19 20 21 22 23 24 
 25 26 27 28 29 30 31 32 33 34 35 36 
 37 38 39 41 42 43 44 45 46 47 49 50 
 51 52 53 54 56 57 58 59 61 62 63 64 
 66 67 68 69 70 71 72 73 74 75 76 77 
 78 80 81 82 83 84 85 86 87 88 
 5 
 22 37 47 50 82 
 5 
 11 33 59 74 82 
 2 
 37 68 
 21 
 1 5 6 7 9 13 17 18 28 30 31 33 
 34 35 55 62 71 79 81 84 88 
 83 
 1 2 3 4 5 6 7 8 9 10 12 13 
 14 15 16 17 19 20 21 22 23 24 25 26 
 28 29 30 31 32 33 34 35 36 37 38 39 
 40 41 42 43 44 45 46 47 48 49 50 51 
 52 53 54 55 56 58 59 60 61 62 63 64 
 65 66 67 68 69 70 71 72 73 74 75 76 
 77 79 80 81 82 83 84 85 86 87 88 
 83 
 1 2 3 4 5 6 7 8 9 10 11 12 
 14 15 16 18 19 20 21 22 23 24 25 26 
 27 28 29 30 31 32 33 35 36 37 39 40 
 41 42 43 44 45 46 47 48 49 50 51 52 
 53 54 55 56 57 58 59 60 61 62 63 64 
 65 66 67 68 69 70 72 73 74 75 76 77 
 78 79 80 81 82 83 84 85 86 87 88 
 77 
 1 2 3 4 5 6 7 8 9 10 12 13 
 14 15 16 17 18 19 20 21 22 24 25 26 
 28 29 30 31 32 33 35 36 37 38 40 41 
 42 43 44 45 47 48 49 50 51 52 53 54 
 58 59 60 61 62 63 64 65 66 67 68 69 
 70 71 72 73 74 75 76 77 78 79 80 82 
 83 85 86 87 88 
 77 
 1 2 3 5 6 7 9 10 11 12 13 14 
 16 17 18 19 21 22 23 24 25 26 27 28 
 29 30 31 32 33 34 35 36 37 38 39 40 
 41 42 43 45 46 47 49 50 51 52 53 54 
 55 56 57 58 60 61 63 64 65 66 67 68 
 70 71 72 73 74 75 77 78 79 80 81 82 
 83 85 86 87 88 
 59 
 2 3 5 7 10 14 15 16 17 18 19 21 
 22 24 25 28 29 31 32 33 35 36 37 38 
 40 41 43 44 45 46 47 48 49 53 54 56 
 57 58 61 62 64 65 67 69 70 71 72 73 
 74 75 76 78 80 82 84 85 86 87 88 
 26 
 4 6 8 9 13 14 22 23 24 34 35 37 
 41 42 43 46 49 57 59 61 63 72 74 77 
 80 81 
 40 
 1 5 6 7 10 15 17 18 23 27 28 30 
 31 32 33 34 42 43 45 46 47 48 52 53 
 55 56 60 62 63 64 65 67 69 70 71 74 
 77 80 86 87 
 48 
 1 2 4 5 6 9 11 14 17 19 21 24 
 27 29 30 32 33 34 37 38 40 41 43 47 
 48 50 52 53 58 60 61 62 64 65 67 68 
 69 70 71 72 73 74 75 76 79 84 87 88 
 18 
 2 13 20 21 32 33 37 39 43 51 53 54 
 64 67 71 72 78 86 
 81 
 1 2 3 4 5 7 8 9 12 13 14 15 
 16 17 18 19 20 21 22 23 24 25 26 27 
 28 29 30 31 32 33 34 35 36 38 39 40 
 42 43 44 45 46 47 48 49 50 51 53 54 
 55 56 57 59 60 61 62 63 64 65 66 67 
 68 69 70 71 72 73 74 75 76 77 78 79 
 80 81 82 83 84 85 86 87 88 
 49 
 1 5 6 9 11 13 14 15 16 18 19 20 
 23 25 26 27 31 32 34 35 39 40 41 42 
 43 45 46 48 49 50 51 52 53 54 55 59 
 60 63 70 71 72 73 75 79 80 81 85 86 
 87 
 38 
 2 3 5 7 8 9 11 12 13 14 15 16 
 20 21 22 28 29 30 36 38 40 41 42 46 
 47 51 52 59 61 62 66 68 74 78 79 82 
 84 87 
 76 
 1 2 3 4 5 6 7 8 9 11 12 13 
 14 15 16 17 18 20 21 22 23 24 26 28 
 29 30 31 32 33 34 35 36 37 39 40 41 
 42 43 44 45 46 47 48 49 50 51 52 53 
 54 55 56 57 59 60 61 62 63 66 67 68 
 69 72 74 75 76 77 78 80 81 82 83 84 
 85 86 87 88 
 78 
 1 2 3 4 5 6 7 8 10 11 12 14 
 15 16 17 19 20 21 22 23 24 25 26 27 
 28 29 30 31 32 34 35 36 37 38 39 41 
 43 44 45 46 47 48 49 50 52 53 54 55 
 56 57 58 59 61 62 63 64 65 66 67 68 
 69 70 71 72 73 74 75 76 77 78 79 80 
 81 82 83 84 85 87 
 26 
 2 10 12 14 15 17 20 24 25 30 31 34 
 35 36 39 49 52 55 56 63 64 67 74 75 
 80 84 
 47 
 1 2 4 5 7 8 9 10 11 13 14 16 
 17 18 19 21 23 26 29 30 38 40 42 43 
 44 45 48 50 51 52 53 54 57 63 64 65 
 66 67 71 72 74 75 80 82 83 86 87 
 44 
 1 4 6 7 8 9 11 12 13 14 15 17 
 20 21 25 27 30 32 34 35 37 41 44 47 
 48 50 52 56 58 63 65 67 69 70 71 72 
 74 76 78 79 82 83 87 88 
 44 
 1 4 5 6 7 11 14 15 17 18 19 20 
 21 22 26 27 28 31 36 39 41 42 49 50 
 51 52 55 56 60 61 62 69 70 71 73 75 
 78 79 80 81 82 83 85 88 
 61 
 2 3 4 6 8 9 10 11 14 15 16 17 
 19 20 21 22 23 26 27 28 29 32 33 34 
 37 39 40 41 45 46 49 50 51 52 53 54 
 55 56 57 58 59 61 63 64 66 67 68 69 
 70 71 74 76 77 78 79 80 81 82 84 85 
 86 
 73 
 1 2 3 5 6 7 8 9 10 12 13 14 
 15 16 18 19 21 25 26 27 29 30 31 32 
 33 35 36 37 38 39 40 41 42 44 45 46 
 48 49 50 51 52 53 54 55 57 58 59 60 
 61 62 63 65 66 68 69 70 71 72 73 74 
 75 77 78 79 80 81 82 83 84 85 86 87 
 88 
 32 
 7 11 14 15 16 18 19 20 21 22 23 27 
 28 29 30 31 35 45 48 52 58 59 62 64 
 65 70 71 72 76 80 83 84 
 46 
 1 2 5 8 9 11 12 13 15 16 19 20 
 21 22 23 24 26 30 31 35 40 44 46 47 
 48 49 50 51 52 55 56 59 60 65 67 69 
 70 72 74 75 77 79 85 86 87 88 
 21 
 3 6 8 11 12 13 19 21 23 37 38 39 
 41 48 54 68 69 75 78 80 87 
 61 
 1 3 4 5 7 8 9 11 13 14 15 18 
 19 20 22 23 25 26 31 32 33 34 35 36 
 38 40 41 42 44 45 47 48 49 50 52 54 
 55 57 59 60 61 62 63 64 65 68 69 70 
 71 73 75 76 77 78 79 80 81 83 84 85 
 86 
 8 
 6 33 39 52 55 72 78 87 
 29 
 2 4 6 9 14 21 24 32 33 34 36 44 
 45 46 51 56 58 63 64 67 68 70 73 76 
 78 79 82 83 84 
 76 
 1 2 4 5 6 7 8 11 13 14 15 16 
 17 19 20 21 22 23 24 25 28 30 31 32 
 33 34 35 36 37 38 39 40 42 43 44 45 
 46 47 48 49 51 52 53 54 56 57 58 59 
 60 61 62 63 64 65 66 67 68 69 70 71 
 72 73 74 75 76 77 78 79 80 82 83 84 
 85 86 87 88 
 30 
 2 7 9 13 14 15 19 20 23 27 28 33 
 35 36 41 44 45 46 47 48 52 57 63 64 
 71 76 80 81 83 87 
 39 
 1 2 3 9 14 15 16 18 20 23 27 28 
 29 30 32 34 36 38 39 40 41 44 45 46 
 47 51 53 56 59 61 63 64 66 71 77 79 
 81 85 86 
 20 
 5 6 8 10 11 24 25 26 27 28 53 62 
 63 69 70 74 78 80 81 88 
 47 
 2 3 9 10 12 13 15 17 18 19 21 22 
 23 24 25 27 30 33 36 38 40 43 44 46 
 47 48 49 52 54 56 57 58 59 60 62 65 
 68 70 71 77 80 81 82 84 86 87 88 
 16 
 5 10 25 37 40 47 50 54 55 60 68 70 
 71 73 79 81 
 56 
 3 4 5 6 7 9 11 13 14 15 17 18 
 22 24 25 26 28 32 33 34 36 37 38 39 
 40 41 44 46 47 51 55 57 58 59 60 62 
 63 67 68 69 70 71 73 74 76 77 78 79 
 80 81 82 83 84 86 87 88 
 58 
 1 3 4 5 6 7 9 10 12 13 15 16 
 18 21 24 26 29 30 31 32 33 34 35 38 
 39 40 41 43 44 46 47 48 49 51 52 56 
 57 59 60 61 63 64 66 67 68 70 71 72 
 75 76 79 80 82 84 85 86 87 88 
 18 
 8 14 15 23 27 30 37 38 41 44 50 66 
 72 73 77 79 82 83 
 5 
 20 37 52 55 60 
 39 
 1 4 7 8 9 16 17 19 23 24 26 30 
 31 32 37 39 42 43 44 45 46 47 53 54 
 55 59 60 61 62 65 67 69 73 75 76 77 
 78 81 85 
 15 
 22 23 25 31 38 41 42 44 52 53 54 65 
 76 84 87 
 75 
 1 2 3 4 5 7 9 10 11 12 13 14 
 16 17 18 19 20 22 23 24 25 26 27 28 
 29 30 31 33 34 36 37 38 39 40 41 42 
 44 45 46 47 48 49 50 51 52 53 55 56 
 57 58 59 60 61 62 63 64 65 66 67 69 
 70 71 72 73 74 76 78 80 82 83 84 85 
 86 87 88 
 12 
 1 12 25 27 41 44 49 56 58 64 71 74 
 79 
 1 2 4 5 6 7 8 9 10 11 12 13 
 14 15 16 17 18 19 20 22 24 25 28 29 
 30 31 32 33 34 35 36 37 38 39 40 41 
 42 43 44 45 46 47 48 49 50 51 52 53 
 54 55 56 57 58 59 60 61 63 64 65 67 
 68 70 72 73 74 75 76 77 78 79 80 81 
 82 83 84 85 86 87 88 
 16 
 11 12 17 19 21 23 24 31 36 37 40 50 
 58 64 65 86 
 42 
 1 3 4 5 6 9 10 13 14 15 16 19 
 20 21 25 27 28 30 32 34 41 43 44 45 
 47 48 51 52 53 57 58 59 64 67 69 71 
 74 79 82 84 85 88 
 45 
 1 2 3 4 5 9 10 11 14 15 18 19 
 21 22 26 27 28 29 30 33 34 35 37 39 
 40 42 43 46 52 54 57 58 64 66 67 68 
 70 73 75 80 82 84 85 86 87 
 16 
 4 10 20 25 32 35 36 37 43 44 46 51 
 57 61 76 86 
 11 
 5 16 19 26 41 48 65 76 80 82 86 
 19 
 3 12 19 22 25 31 32 45 47 50 51 55 
 56 57 64 65 69 80 88 
 67 
 1 2 3 4 5 6 7 9 10 11 12 13 
 14 15 16 17 18 19 20 21 22 23 24 25 
 28 29 30 31 33 34 35 39 41 42 43 46 
 47 49 50 51 53 54 56 58 59 60 61 62 
 64 66 67 68 69 70 71 72 73 74 77 78 
 79 80 81 82 84 85 86 
 85 
 1 3 4 5 6 7 8 9 10 11 12 13 
 15 16 17 18 19 20 21 22 23 24 25 26 
 27 28 29 30 31 32 33 34 35 36 37 38 
 39 40 41 42 43 44 45 46 47 48 49 50 
 51 52 53 55 56 57 58 59 60 61 62 63 
 64 65 66 67 68 69 70 71 72 73 74 75 
 76 77 78 79 80 81 82 83 84 85 86 87 
 88 
 28 
 2 3 5 7 8 11 17 18 19 25 26 27 
 29 33 35 37 53 54 73 74 75 78 79 81 
 82 84 86 87 
 37 
 2 6 7 9 11 12 13 16 17 22 23 24 
 25 26 29 32 35 41 42 45 46 48 50 51 
 52 53 60 61 62 65 73 77 78 79 81 83 
 88 
 78 
 1 2 3 4 5 7 8 9 10 11 12 13 
 15 16 17 18 19 21 22 23 24 25 26 28 
 29 30 31 32 33 35 36 37 38 39 40 41 
 42 43 44 45 46 47 48 49 50 51 52 54 
 55 56 57 58 59 60 61 62 65 66 67 68 
 69 70 73 74 75 76 77 78 79 80 81 82 
 83 84 85 86 87 88 
 77 
 1 2 3 4 5 6 7 8 9 10 11 12 
 13 14 15 16 17 18 20 21 22 23 24 25 
 26 27 28 29 30 31 33 35 36 37 38 39 
 41 42 43 44 45 46 47 48 49 50 51 52 
 53 54 55 56 57 58 60 63 64 65 66 67 
 68 69 70 71 72 73 75 76 77 78 80 81 
 82 84 85 86 88 
 41 
 1 9 12 13 15 21 22 24 25 27 29 31 
 32 33 35 38 39 40 42 43 46 47 49 50 
 51 53 55 56 61 62 66 68 72 74 79 81 
 82 83 84 85 87 
 59 
 1 2 5 6 7 8 9 10 11 12 13 14 
 16 17 19 22 25 27 28 29 30 31 35 36 
 37 40 42 43 45 47 48 49 50 51 52 53 
 55 57 59 60 62 63 64 65 67 68 71 72 
 74 75 77 79 80 82 83 85 86 87 88 
 48 
 3 4 5 7 8 10 12 13 16 19 20 22 
 24 27 29 30 31 32 33 34 38 39 44 45 
 48 50 52 53 55 56 57 60 61 62 65 67 
 69 71 72 74 75 77 78 80 81 83 84 87 
 48 
 1 2 4 6 7 8 10 12 13 14 19 23 
 24 26 27 28 29 34 35 37 42 44 45 46 
 47 50 51 53 54 55 58 59 61 63 64 67 
 69 70 71 73 74 75 77 78 81 86 87 88 
 86 
 1 2 3 4 5 6 7 8 9 10 11 12 
 13 14 15 17 18 19 20 21 22 23 24 25 
 26 27 28 29 30 31 32 33 34 35 36 37 
 38 39 40 41 42 43 44 45 46 47 48 49 
 50 51 52 53 54 55 56 58 59 60 61 62 
 63 64 65 66 67 68 69 70 71 72 73 74 
 75 76 77 78 79 80 81 82 83 84 85 86 
 87 88 
 36 
 4 5 6 7 10 15 16 20 24 26 28 30 
 32 35 38 39 40 42 47 49 53 57 60 61 
 63 64 66 68 69 72 76 79 80 82 84 85 
 44 
 2 3 5 7 8 11 12 14 15 20 21 23 
 25 29 30 33 35 37 39 40 41 44 46 47 
 48 49 52 53 55 56 58 59 63 65 66 68 
 69 73 77 78 79 81 83 87 
 59 
 1 2 3 6 7 8 10 13 16 17 19 21 
 22 23 26 27 28 31 32 33 34 35 37 38 
 39 40 42 44 45 46 47 48 50 51 53 54 
 55 57 58 59 62 63 64 65 66 67 68 69 
 70 71 73 74 76 77 78 83 84 85 86 
 69 
 1 2 3 4 5 6 7 8 10 11 12 13 
 14 15 16 17 18 19 20 21 22 24 26 28 
 30 33 36 37 38 39 40 41 43 44 45 46 
 47 48 49 50 51 53 55 57 58 60 61 62 
 63 65 66 67 68 69 70 71 72 73 74 75 
 76 77 78 80 81 82 83 84 87 
 53 
 1 2 3 5 7 12 14 17 19 20 23 24 
 25 26 27 28 30 31 32 33 34 35 37 39 
 40 42 44 45 46 47 49 52 53 54 56 57 
 58 64 65 66 67 68 70 74 75 76 77 78 
 79 80 86 87 88 
 78 
 1 2 3 4 5 6 7 10 11 12 13 16 
 17 18 19 21 22 23 26 27 28 29 30 31 
 32 33 34 35 36 37 38 39 40 41 42 43 
 44 45 46 47 48 49 50 51 52 53 54 55 
 56 57 58 59 61 62 63 64 65 66 67 68 
 69 70 73 74 75 76 77 78 79 80 81 82 
 83 84 85 86 87 88 
 6 
 7 17 73 78 82 88 
 10 
 8 13 19 31 36 42 47 57 70 84 
 4 
 6 20 22 64 
 77 
 1 2 3 4 5 6 7 8 9 10 11 12 
 13 14 15 16 18 19 20 21 22 23 24 25 
 27 28 29 32 33 34 35 38 39 40 41 42 
 43 44 45 46 47 48 50 51 52 53 54 55 
 56 57 58 59 60 61 63 64 66 67 68 69 
 70 71 72 73 74 75 76 77 78 79 80 81 
 82 84 85 86 87 
 63 
 3 4 6 9 10 13 14 15 17 18 19 23 
 24 25 27 29 31 32 33 36 37 38 39 40 
 41 42 43 44 45 46 47 48 49 50 52 53 
 54 55 56 57 58 59 60 61 62 63 64 66 
 67 68 69 70 71 72 73 74 76 77 80 83 
 85 86 88 
 76 
 2 3 5 6 7 8 9 10 11 12 13 14 
 15 16 17 18 19 20 22 23 24 26 27 28 
 29 30 31 32 33 34 36 37 41 42 43 44 
 45 46 47 48 49 50 51 52 53 55 56 59 
 60 61 62 63 64 65 66 67 68 69 70 71 
 72 73 74 75 76 77 78 79 80 81 82 84 
 85 86 87 88 
 73 
 1 2 4 5 6 7 8 9 10 12 13 14 
 15 16 17 18 19 20 22 23 26 27 28 29 
 30 31 32 34 35 36 37 38 39 40 42 44 
 45 46 47 48 49 50 51 52 53 54 55 56 
 57 59 61 62 63 66 67 68 69 70 71 72 
 73 74 75 76 77 78 82 83 84 85 86 87 
 88 
 60 
 2 6 7 8 10 11 12 14 15 17 18 19 
 20 21 22 25 28 29 30 31 32 34 35 36 
 38 39 40 41 45 48 50 51 53 54 55 56 
 57 58 59 60 61 62 65 66 67 68 71 72 
 73 74 76 77 78 81 82 83 84 86 87 88 
 